C O H
    1.000000000000000
    17.2165832519531250     0.0000000000000000     0.0000000000000000
     8.6082916259765625    14.9099998474121094     0.0000000000000000
     0.0000000000000000     0.0000000000000000    20.0000000000000000
C O H
  196    2    2
Selective Dynamics
Direct
  0.0510358191313429  0.0628786253415365  0.0943958021490449    F    T    T
  0.0034264883326856  0.1580232014369215  0.0904900705758801    F    T    T
  0.0510141422107750  0.2056940521021827  0.0903676921655340    F    T    T
  0.0034122038278923  0.3007866580355034  0.0854002303729326    F    T    T
  0.0509836308162264  0.3483727463643859  0.0881134289725178    F    T    T
  0.0033534618774880  0.4435840601061508  0.0855825858922235    F    T    T
  0.0510177897979247  0.4911338972035491  0.0905558534347230    F    T    T
  0.0035020536895303  0.5863605729407703  0.0909511782883908    F    T    T
  0.0513253748649092  0.6338741003497224  0.0947556826103189    F    T    T
  0.0036232955971798  0.7291850308761951  0.0958047571872603    F    T    T
  0.0513735808855387  0.7768447828666502  0.0969817170322843    F    T    T
  0.0035858290264841  0.8721677751779876  0.0971987557298998    F    T    T
  0.0511268546213799  0.9199155672585566  0.0967961885437038    F    T    T
  0.0034760609972295  0.0151750310944109  0.0954414510829830    F    T    T
  0.1939078671428760  0.0628675518814933  0.0955801788331060    F    T    T
  0.1462123999518070  0.1581257207348485  0.0943699225498766    F    T    T
  0.1938632548465691  0.2056610015998998  0.0953602661459114    F    T    T
  0.1461802731318826  0.3008680541866003  0.0934934080568366    F    T    T
  0.1938802113726652  0.3483520016915230  0.0952416663687802    F    T    T
  0.1462769332430369  0.4435963051707840  0.0942456515133467    F    T    T
  0.1940292279136244  0.4911176342845933  0.0952768859514777    F    T    T
  0.1465850680818903  0.5863172708469938  0.0957352761097009    F    T    T
  0.1947385705327420  0.6338285830689356  0.0955691245003087    F    T    T
  0.1465878039219177  0.7294082410211047  0.0959916313780593    F    T    T
  0.1940061723589892  0.7771954107788863  0.0943395660736826    F    T    T
  0.1463434409986561  0.8724055129900148  0.0956998449295055    F    T    T
  0.1939574857773820  0.9200504294181840  0.0950292890271737    F    T    T
  0.1462730672900463  0.0152963695004708  0.0954824934862158    F    T    T
  0.3367952740564490  0.0626578896563748  0.0965320143108400    F    T    T
  0.2891224730998800  0.1579045616005263  0.0971733677275908    F    T    T
  0.3367642696132904  0.2054576576462117  0.0975904970855360    F    T    T
  0.2891028018778314  0.3006260474891450  0.0968675049674228    F    T    T
  0.3368489919761970  0.3482454527564443  0.0955093822829165    F    T    T
  0.2892472772100732  0.4433486182357225  0.0944961757564279    F    T    T
  0.3373847210613476  0.4906519868365273  0.0925988742908403    F    T    T
  0.2894523921524197  0.5865551941632010  0.0932250526685654    F    T    T
  0.3371137732763074  0.6345466209496953  0.0887097557536628    F    T    T
  0.2890299169662001  0.7298651913867408  0.0899251286337421    F    T    T
  0.3366964851977627  0.7773043506916594  0.0882543680758937    F    T    T
  0.2891044370571052  0.8725193311851459  0.0923157795990359    F    T    T
  0.3367945818006248  0.9199311743137384  0.0927686770906660    F    T    T
  0.2891674008378544  0.0151352851672491  0.0955160269609144    F    T    T
  0.4797097291463928  0.0624944182523958  0.0969763273394694    F    T    T
  0.4320834261243220  0.1577448524403580  0.0975560836269920    F    T    T
  0.4796643028280201  0.2053587565158513  0.0960014706846851    F    T    T
  0.4319679644006342  0.3005210456977561  0.0940318493354384    F    T    T
  0.4793058998490594  0.3484636912130477  0.0905249402881569    F    T    T
  0.4314599039900813  0.4425496731575569  0.0905108606244194    F    T    T
  0.4822329006475812  0.4910926970161779  0.1003192068200340    F    T    T
  0.4310200168283913  0.5885095291586477  0.0840369025334586    F    T    T
  0.4788645305902861  0.6346373386783006  0.0782566500572745    F    T    T
  0.4316544957889619  0.7299480158409346  0.0823338992483255    F    T    T
  0.4795231342548476  0.7772119629371762  0.0833400279080135    F    T    T
  0.4320428919139871  0.8722017309779917  0.0896022742186767    F    T    T
  0.4797039671020187  0.9196891967892363  0.0920452281522253    F    T    T
  0.4320709280614849  0.0148890402222767  0.0958234543479727    F    T    T
  0.6224718269897096  0.0627007295295774  0.0965669482293096    F    T    T
  0.5749081492017751  0.1579334843521869  0.0955632419201290    F    T    T
  0.6224496440451119  0.2059698764191373  0.0919463026547071    F    T    T
  0.5752831086824770  0.3006007593787255  0.0881426348762783    F    T    T
  0.6232090257695830  0.3480763603155136  0.0798997303001096    F    T    T
  0.5769850836719286  0.4422699610935272  0.0769300353613719    F    T    T
  0.6229530707109916  0.4903710645901090  0.0697585697620747    F    T    T
  0.5747729943131503  0.5865536281476296  0.0723562263293286    F    T    T
  0.6223095473761688  0.6340505956298833  0.0719079691610512    F    T    T
  0.5747747587904968  0.7294306093635750  0.0790755678375289    F    T    T
  0.6224636975265980  0.7769099974274017  0.0835294418907981    F    T    T
  0.5749452829266843  0.8719817661369471  0.0899681423275960    F    T    T
  0.6225464422066835  0.9195960875228955  0.0934334099824090    F    T    T
  0.5749446960573295  0.0148798763364601  0.0962435642191595    F    T    T
  0.7654036061619820  0.0628498145616470  0.0950261583362595    F    T    T
  0.7179927543015836  0.1580138176202503  0.0913448988832145    F    T    T
  0.7657057992046532  0.2054471551746856  0.0861671145035871    F    T    T
  0.7185469582516575  0.3003049141570645  0.0785938092908516    F    T    T
  0.7660670005899064  0.3480067727652602  0.0733228004592443    F    T    T
  0.7187692408822457  0.4430618499507359  0.0669761829823323    F    T    T
  0.7660636039900837  0.4910710688213240  0.0657498175124039    F    T    T
  0.7181915209979195  0.5866542553124393  0.0683915687166871    F    T    T
  0.7654663341579635  0.6342922672096434  0.0755811630381436    F    T    T
  0.7178065211841229  0.7294004635391662  0.0824270058531385    F    T    T
  0.7653812639002879  0.7767924974441579  0.0887896051229369    F    T    T
  0.7178031626896910  0.8719940276020224  0.0930686640643789    F    T    T
  0.7654053190143060  0.9196948071796797  0.0957412770896868    F    T    T
  0.7178098620525617  0.0150317685100823  0.0963539897516614    F    T    T
  0.9082557814086911  0.0627325763115396  0.0938964377477793    F    T    T
  0.8608274061700101  0.1577883883291220  0.0887206386950631    F    T    T
  0.9083732566588409  0.2054577760181722  0.0859140941692066    F    T    T
  0.8610276465586608  0.3002293745731953  0.0782775380540689    F    T    T
  0.9084960323764335  0.3479739556426745  0.0776170409813337    F    T    T
  0.8609282415510435  0.4430609347750190  0.0717556966959663    F    T    T
  0.9082637161546288  0.4908371043744568  0.0779426427367656    F    T    T
  0.8606756966515192  0.5862723681297082  0.0794584411777243    F    T    T
  0.9082392198977161  0.6338061038518540  0.0870767515830830    F    T    T
  0.8606509710952466  0.7290588732275124  0.0902396217655395    F    T    T
  0.9083450129885549  0.7766700291911394  0.0946168474675095    F    T    T
  0.8606881388511098  0.8719994521212877  0.0961166337060282    F    T    T
  0.9082933018768102  0.9197348304758017  0.0969533666015402    F    T    T
  0.8606668511754734  0.0150573972617877  0.0956388265357652    F    T    T
  0.2316556173092863  0.0796251727019367  0.2747048106076439    F    T    T
  0.1840431156597475  0.1748506207526144  0.2751884721939381    F    T    T
  0.2317453265465872  0.2225096824566153  0.2756683664624055    F    T    T
  0.1842719144820322  0.3176527532320751  0.2769199264691792    F    T    T
  0.2318368002939977  0.3653328550518546  0.2788081904391219    F    T    T
  0.1842163738673008  0.4605672456741206  0.2795024790310442    F    T    T
  0.2318443919308635  0.5081722425826877  0.2825893661530655    F    T    T
  0.1841620493410261  0.6033674477007942  0.2812892966519205    F    T    T
  0.2318716386677906  0.6508889114398951  0.2839446947918748    F    T    T
  0.1841929023960915  0.7461154970342045  0.2802900803235848    F    T    T
  0.2319227978033922  0.7937001727836209  0.2808074279957523    F    T    T
  0.1841506036558940  0.8889691146993163  0.2772401725252733    F    T    T
  0.2317549511152777  0.9366633493170009  0.2767364670118662    F    T    T
  0.1840109460770165  0.0319778933733862  0.2750773060783812    F    T    T
  0.3745264354137632  0.0798337426362884  0.2753614652624695    F    T    T
  0.3269885648160553  0.1750588543547364  0.2758861099856746    F    T    T
  0.3745951219341634  0.2227347978699477  0.2785155738722475    F    T    T
  0.3270758714958433  0.3179169681960503  0.2807358123460745    F    T    T
  0.3746442890473034  0.3654813398235930  0.2861669991825460    F    T    T
  0.3270857376717515  0.4607448288421508  0.2878153726396078    F    T    T
  0.3746631349373644  0.5082440691399652  0.2943504763344829    F    T    T
  0.3270345797346579  0.6035114472713562  0.2910039490580847    F    T    T
  0.3747963474822882  0.6511844778477955  0.2929609833039897    F    T    T
  0.3271132077965149  0.7462111576388877  0.2860211685062374    F    T    T
  0.3747533951137996  0.7939519777854126  0.2846017699064378    F    T    T
  0.3270275738582242  0.8891095874260601  0.2791792288800502    F    T    T
  0.3745233233091767  0.9368730884776795  0.2776436046756900    F    T    T
  0.3269209086692228  0.0321171364559478  0.2752039135699939    F    T    T
  0.5173317468485692  0.0799885003561526  0.2772998520208333    F    T    T
  0.4697952192219148  0.1752221557458427  0.2795476967779138    F    T    T
  0.5173661967966723  0.2227906220371857  0.2842398356030450    F    T    T
  0.4697982645565730  0.3179057497092220  0.2893221958787229    F    T    T
  0.5172693181438248  0.3652849397037645  0.2969736225788165    F    T    T
  0.4696399822793324  0.4605476067651689  0.3011741244426485    F    T    T
  0.5170562659630420  0.5084438573867656  0.3053584932398273    F    T    T
  0.4696364059768925  0.6037426868417071  0.2999498136084743    F    T    T
  0.5175991117094796  0.6512367786901032  0.2959697284211780    F    T    T
  0.4697731477978948  0.7465764849509389  0.2886427851380686    F    T    T
  0.5170932371118724  0.7943417626089240  0.2851143714446914    F    T    T
  0.4696461345936100  0.8893803663838763  0.2797191069450697    F    T    T
  0.5172416789439325  0.9370726512911713  0.2776954666389290    F    T    T
  0.4697143375128974  0.0323170950074331  0.2761721247557004    F    T    T
  0.6601417277631114  0.0799180739802572  0.2793915609517472    F    T    T
  0.6125655793177032  0.1749879683962641  0.2840352930047963    F    T    T
  0.6600975597352559  0.2224472366048069  0.2888321168262047    F    T    T
  0.6124354382391175  0.3172120648152743  0.2963515883822693    F    T    T
  0.6599885514940098  0.3647721657890584  0.3003315265651280    F    T    T
  0.6121232170280138  0.4600721372830146  0.3048975604445863    F    T    T
  0.6603784652892912  0.5074410616954406  0.3010245084856910    F    T    T
  0.6122399836182595  0.6034744016209801  0.2965081031156698    F    T    T
  0.6598646220025941  0.6516029594848900  0.2910027662208123    F    T    T
  0.6121677361791953  0.7468855764000526  0.2867935396364077    F    T    T
  0.6599225775425168  0.7942833996718859  0.2819085931027949    F    T    T
  0.6123686075716179  0.8895639583684186  0.2783978328174443    F    T    T
  0.6600611023727154  0.9370914568916977  0.2768591999748700    F    T    T
  0.6125210178496232  0.0323440769225551  0.2773843620629542    F    T    T
  0.8029825835177107  0.0798952938589535  0.2799475524165912    F    T    T
  0.7553773655587150  0.1749342991654402  0.2856084352406235    F    T    T
  0.8029623052753010  0.2225459760041614  0.2878481984596390    F    T    T
  0.7553298184962074  0.3174106099303822  0.2950234479760085    F    T    T
  0.8028129796678343  0.3653290310530711  0.2931843329971315    F    T    T
  0.7544911838867918  0.4591078844404198  0.2963058533792590    F    T    T
  0.8007223600688604  0.5076405717555266  0.2716944402315199    F    T    T
  0.7541839511645279  0.6053906653279206  0.2865390373553239    F    T    T
  0.8023605550421848  0.6514655856415189  0.2829169058219827    F    T    T
  0.7550387559159262  0.7469768162907557  0.2812021779985392    F    T    T
  0.8028182002094653  0.7942779003838737  0.2774861710692184    F    T    T
  0.7553114362246234  0.8895022822922758  0.2763926658388901    F    T    T
  0.8029794447583640  0.9370422509550804  0.2759199116194487    F    T    T
  0.7553823371182560  0.0322935959273446  0.2780680929451713    F    T    T
  0.9457298495726718  0.0799331105670879  0.2780989736638508    F    T    T
  0.8980557042901509  0.1750482041212485  0.2822064369398085    F    T    T
  0.9455594406000287  0.2230483733923128  0.2813424971612271    F    T    T
  0.8981265191216323  0.3176978267560449  0.2849691745966434    F    T    T
  0.9461945085648082  0.3655575274244173  0.2824422727127585    F    T    T
  0.8998769640288273  0.4598227558685511  0.2806428874877404    F    T    T
  0.9460559947081890  0.5078621598927605  0.2804507453045343    F    T    T
  0.8982112367318891  0.6036572651874839  0.2795139231958033    F    T    T
  0.9455673328939582  0.6508812552821067  0.2771624321186386    F    T    T
  0.8980675843341572  0.7464672795407120  0.2762841290526002    F    T    T
  0.9457784767242643  0.7939206301128725  0.2752453150282388    F    T    T
  0.8982236143926059  0.8892640434951700  0.2752447300893505    F    T    T
  0.9458584409744191  0.9368841577969419  0.2755518475934144    F    T    T
  0.8982110843925071  0.0321919332831553  0.2775717227635318    F    T    T
  0.0886439820416243  0.0797540587866030  0.2756351619829503    F    T    T
  0.0410248090201222  0.1749792776743765  0.2773762631817110    F    T    T
  0.0888541343335589  0.2223841527418040  0.2771158838673196    F    T    T
  0.0414168216747157  0.3175211498641627  0.2794269904144036    F    T    T
  0.0889106023596255  0.3652551568105085  0.2781468718836537    F    T    T
  0.0414360132637910  0.4603202977105270  0.2791672898332953    F    T    T
  0.0889088613934916  0.5080664879336487  0.2782884298865748    F    T    T
  0.0412042756854802  0.6032792699931981  0.2772923750562321    F    T    T
  0.0888061048695619  0.6508732390482228  0.2776963920903124    F    T    T
  0.0411709628554391  0.7461935409384878  0.2762115169275859    F    T    T
  0.0888613904671871  0.7937416279711300  0.2768159086202400    F    T    T
  0.0411713065901722  0.8890744363609863  0.2756262117344412    F    T    T
  0.0888053174232937  0.9367121520509546  0.2757098983586513    F    T    T
  0.0410418347145693  0.0320517630326852  0.2758930464073833    F    T    T
  0.4909066614925166  0.4890163878540414  0.1747486606792041    T    T    T
  0.7700780585699487  0.5053627418616971  0.1993517022501496    T    T    T
  0.5319262515607498  0.5113178630526557  0.1848540353512469    T    T    T
  0.7837730377871578  0.5472981984005644  0.1764948011631551    T    T    T
