C    O H Mg                             
   1.00000000000000     
    17.2165832519531250    0.0000000000000000    0.0000000000000000
     8.6082916259765625   14.9099998474121094    0.0000000000000000
     0.0000000000000000    0.0000000000000000   20.0000000000000000
   C    O    H    Mg
   196     3     1     1
Selective dynamics
Direct
  0.0732839674375013  0.0711777519277541  0.0465498828541915   T   T   T
  0.0256899747572187  0.1663957968682427  0.0459355761451077   T   T   T
  0.0732748808154175  0.2140389730639512  0.0456783934626928   T   T   T
  0.0256837808490085  0.3092740125794526  0.0459566482115428   T   T   T
  0.0732617505453461  0.3569107209257440  0.0466995383943200   T   T   T
  0.0256629452868981  0.4521572837111845  0.0473817569661422   T   T   T
  0.0733203521620096  0.4997593018140201  0.0491868707891339   T   T   T
  0.0257231276969279  0.5949832967449775  0.0495765539728357   T   T   T
  0.0735305281674397  0.6424616525948221  0.0518669527795573   T   T   T
  0.0257846908648680  0.7377972680444265  0.0510091022563777   T   T   T
  0.0735428152196803  0.7853709068077723  0.0519584559482843   T   T   T
  0.0257494128771959  0.8806494440771444  0.0497159084366953   T   T   T
  0.0733742485073210  0.9282448177853716  0.0491439189222048   T   T   T
  0.0256990311262025  0.0235144598013309  0.0473830918525423   T   T   T
  0.2160590220768477  0.0712096912149498  0.0464236807983538   T   T   T
  0.1684631270059604  0.1664404105142646  0.0459029365329329   T   T   T
  0.2160507181964746  0.2140807419366001  0.0466908757333847   T   T   T
  0.1684616841785188  0.3092936131178599  0.0474574139829812   T   T   T
  0.2160681485485103  0.3568675369119446  0.0499073314614366   T   T   T
  0.1685291446435462  0.4521216238717450  0.0511110374062950   T   T   T
  0.2162353467759434  0.4995823777746771  0.0547665959238076   T   T   T
  0.1687063245540652  0.5947876287326463  0.0552648389712424   T   T   T
  0.2167940744985189  0.6422848565476463  0.0584482821959797   T   T   T
  0.1687259883974899  0.7378650238293445  0.0553370456857347   T   T   T
  0.2162926655573459  0.7854965485020440  0.0547591277168282   T   T   T
  0.1685917503566510  0.8806661375889182  0.0509160527955891   T   T   T
  0.2161116593302124  0.9283857836272894  0.0495258837513999   T   T   T
  0.1684811877417940  0.0235780634283883  0.0471102856440732   T   T   T
  0.3588394883965860  0.0712409897488911  0.0469607749053113   T   T   T
  0.3112428476260931  0.1664573389170400  0.0473426916607581   T   T   T
  0.3588138397391778  0.2140800683670243  0.0493743488714290   T   T   T
  0.3111970103308575  0.3092007766527846  0.0514074092829768   T   T   T
  0.3588606127005483  0.3568069559881663  0.0553529542057723   T   T   T
  0.3114224599229120  0.4518456300146340  0.0577573853516719   T   T   T
  0.3595157245775824  0.4989574802032570  0.0637647953585629   T   T   T
  0.3114212952727824  0.5949669534237656  0.0637403036642686   T   T   T
  0.3595227034913404  0.6428470491897721  0.0642917868600989   T   T   T
  0.3114697054791077  0.7380237430399503  0.0579680127861289   T   T   T
  0.3588868418199835  0.7856302143708028  0.0553299170635717   T   T   T
  0.3112406897235202  0.8808780211732764  0.0510191468757388   T   T   T
  0.3588285657149859  0.9284054782065447  0.0488696070495569   T   T   T
  0.3112500959814776  0.0236166279456507  0.0470240304975684   T   T   T
  0.5016890296430923  0.0712981279854346  0.0482741045340724   T   T   T
  0.4540739377266894  0.1665200781649546  0.0498805937661699   T   T   T
  0.5015904741922071  0.2141853995882075  0.0526239902055244   T   T   T
  0.4539461803142529  0.3093096916148537  0.0561427830489199   T   T   T
  0.5012295563123936  0.3572127500089775  0.0612812152233518   T   T   T
  0.4536202580484670  0.4510411682854037  0.0678349940258805   T   T   T
  0.5036509794898092  0.4985733835016766  0.0870917800631352   T   T   T
  0.4536990489035241  0.5964961576719128  0.0687300595236680   T   T   T
  0.5012519917710281  0.6428497652123689  0.0617312925463604   T   T   T
  0.4539463590167514  0.7380604518913809  0.0561681944641080   T   T   T
  0.5015800970774468  0.7855293289514275  0.0520933448501430   T   T   T
  0.4540801374926253  0.8807228946193053  0.0492672048865493   T   T   T
  0.5016928316859338  0.9283508393726385  0.0478553264744562   T   T   T
  0.4540783930877854  0.0236311200847054  0.0473902091088059   T   T   T
  0.6444480776435098  0.0714790684591187  0.0497263015121930   T   T   T
  0.5968025621564214  0.1666435503672574  0.0523272731488718   T   T   T
  0.6443818116347388  0.2146560874424262  0.0540887680254961   T   T   T
  0.5971751353107854  0.3092600370373475  0.0587959405773983   T   T   T
  0.6451879581720833  0.3570663225887629  0.0578228422822890   T   T   T
  0.5991150532792057  0.4510981838190685  0.0631117575023728   T   T   T
  0.6451795364733032  0.4990707304764717  0.0577202191545022   T   T   T
  0.5971942384295262  0.5949148894898090  0.0586829445003073   T   T   T
  0.6443711893687428  0.6423417495819749  0.0535545132382815   T   T   T
  0.5967888732767256  0.7379200106687811  0.0516456570887802   T   T   T
  0.6444342664514986  0.7854512156961512  0.0490016890718301   T   T   T
  0.5969198683911655  0.8807559471418563  0.0479509568300447   T   T   T
  0.6445329337210698  0.9284297312856262  0.0477083243116315   T   T   T
  0.5969165053547577  0.0237087928555366  0.0483918117484043   T   T   T
  0.7874456601976524  0.0714281817788679  0.0491999842805035   T   T   T
  0.7399345618318532  0.1666456438187303  0.0510517453505028   T   T   T
  0.7876442534142594  0.2141177999786621  0.0500097740199446   T   T   T
  0.7401969519255407  0.3092729480469349  0.0521060627255403   T   T   T
  0.7877431186546212  0.3568134960028314  0.0503665967515812   T   T   T
  0.7402150209335223  0.4518861935960824  0.0519049664664256   T   T   T
  0.7876200133310226  0.4996292600933588  0.0495955202497605   T   T   T
  0.7399117848495896  0.5948166096622495  0.0504280983406343   T   T   T
  0.7874202321409031  0.6425303887489743  0.0485490233650383   T   T   T
  0.7397789910181208  0.7378514825173662  0.0483644200151081   T   T   T
  0.7874466504186105  0.7854988995968157  0.0477860603490326   T   T   T
  0.7398145391597073  0.8808009250714731  0.0477949833489984   T   T   T
  0.7874578738089504  0.9284568896529236  0.0481644379207622   T   T   T
  0.7397988702388971  0.0237593517912817  0.0490321095099830   T   T   T
  0.9304232696582283  0.0711888977455498  0.0474891717145740   T   T   T
  0.8828435522076217  0.1664264334455885  0.0477032119049366   T   T   T
  0.9304994789490564  0.2140175730375320  0.0467983173770171   T   T   T
  0.8829720022062242  0.3092002326910130  0.0475549304130026   T   T   T
  0.9304860212165529  0.3568643186406273  0.0466949419317225   T   T   T
  0.8828262016129305  0.4521138565648034  0.0474178159489211   T   T   T
  0.9303896107905621  0.4997787800319834  0.0472168457625219   T   T   T
  0.8827352217819190  0.5950072575605749  0.0477085216831810   T   T   T
  0.9304257642672488  0.6425970831747392  0.0482125507888866   T   T   T
  0.8827693452044552  0.7378554709175736  0.0482106618294939   T   T   T
  0.9304867293664668  0.7854457189709170  0.0489814900461235   T   T   T
  0.8827814356734980  0.8807519438618795  0.0484833824363251   T   T   T
  0.9304497643454991  0.9283372012047962  0.0485332002016033   T   T   T
  0.8827592493869452  0.0236235544348394  0.0481501938247995   T   T   T
  0.0701272460635914  0.0720616619995778  0.4009398740833163   T   T   T
  0.0225006107306501  0.1672797657554720  0.3981904665794858   T   T   T
  0.0702041882651329  0.2148487810493433  0.3984151077779527   T   T   T
  0.0226905745944945  0.3099703062700419  0.3964571921821099   T   T   T
  0.0701842385551590  0.3575991162300483  0.3983413051700973   T   T   T
  0.0224683044503267  0.4528729978111531  0.3980319671837497   T   T   T
  0.0700958530661167  0.5004641537037112  0.4009191249700575   T   T   T
  0.0225099243792406  0.5956878317331323  0.4011638493598751   T   T   T
  0.0702030858958244  0.6432675469499604  0.4040680954785968   T   T   T
  0.0226119806987322  0.7385532112311493  0.4035817625152890   T   T   T
  0.0702631545692988  0.7862049218514809  0.4054561241128918   T   T   T
  0.0226128813296473  0.8814982108655437  0.4036717447538181   T   T   T
  0.0702376529484378  0.9291575561528179  0.4040988113392405   T   T   T
  0.0225415321311417  0.0244258301721210  0.4012513702225606   T   T   T
  0.2130174133390687  0.0720105279920398  0.4020961262238004   T   T   T
  0.1654214137970407  0.1671939706704622  0.4004390139152691   T   T   T
  0.2130114115334731  0.2148095627358910  0.4007322719529198   T   T   T
  0.1654013516602796  0.3100238989667000  0.4004996249368473   T   T   T
  0.2130015453382582  0.3576009722062243  0.4023577130397235   T   T   T
  0.1653782723823239  0.4528678745431166  0.4031871940888420   T   T   T
  0.2130326624470765  0.5004321428378884  0.4058392329008995   T   T   T
  0.1654795422399995  0.5956872843587815  0.4066607336327151   T   T   T
  0.2133076792595583  0.6431912070006545  0.4088147990665922   T   T   T
  0.1656101137072281  0.7385387838736553  0.4082342554747017   T   T   T
  0.2133647667115445  0.7861478760956435  0.4088859623265838   T   T   T
  0.1655102983136812  0.8814708099283158  0.4066312845625692   T   T   T
  0.2130897454532482  0.9291270506048483  0.4056278789796762   T   T   T
  0.1654161113742280  0.0243530977949863  0.4029841625111322   T   T   T
  0.3558366259365098  0.0719861379414077  0.4017480526742170   T   T   T
  0.3082407227835196  0.1671878607131848  0.4014737907996967   T   T   T
  0.3558516875422187  0.2147704300367968  0.4020417514069258   T   T   T
  0.3082094746361302  0.3099710602774369  0.4030721244312821   T   T   T
  0.3558643271018718  0.3575261703122383  0.4043014285931765   T   T   T
  0.3083365132211844  0.4527918200213370  0.4062468416269299   T   T   T
  0.3561049562114141  0.5002698345812234  0.4069611894972094   T   T   T
  0.3086592401712705  0.5955512918582424  0.4090863373229262   T   T   T
  0.3565193517955992  0.6430943719948609  0.4083058615582517   T   T   T
  0.3086746712523684  0.7384925170406698  0.4090343320556910   T   T   T
  0.3561766357706764  0.7862037658336700  0.4067679814262138   T   T   T
  0.3083944116200740  0.8814238106016552  0.4059478054565385   T   T   T
  0.3558752092457446  0.9291879370321153  0.4038089048689730   T   T   T
  0.3082202010523770  0.0244040835567259  0.4026692816916154   T   T   T
  0.4987080249744290  0.0719461258062626  0.4011235443010603   T   T   T
  0.4510758439306375  0.1671279107902283  0.4017251362853541   T   T   T
  0.4986901465375805  0.2146878049226632  0.4015923560676785   T   T   T
  0.4510110919946813  0.3098531456499462  0.4027953954329926   T   T   T
  0.4986331269011208  0.3575290633407307  0.4013547792474200   T   T   T
  0.4511705436256285  0.4525709334747238  0.4032573234998860   T   T   T
  0.4990082436192885  0.4999713775084191  0.3985328746022367   T   T   T
  0.4510488128965240  0.5958619772020008  0.4009876522606551   T   T   T
  0.4990878379570716  0.6436806385763230  0.3978821134255206   T   T   T
  0.4511984968246864  0.7388329814452308  0.4027017459341839   T   T   T
  0.4985975682547712  0.7864192424777054  0.4005181148746297   T   T   T
  0.4509959354496265  0.8817290323789190  0.4021612268065906   T   T   T
  0.4986574739415213  0.9292199582409165  0.4010670760415253   T   T   T
  0.4510583591074830  0.0244011293714249  0.4014096445775019   T   T   T
  0.6415903820653206  0.0719332244956091  0.4000852364483307   T   T   T
  0.5939206547872729  0.1671212307142445  0.4002210435469038   T   T   T
  0.6414092852085136  0.2148318196781024  0.3981892522431660   T   T   T
  0.5936244614900426  0.3100426682609300  0.3975678808916020   T   T   T
  0.6406875951760054  0.3579867675711165  0.3914917480481043   T   T   T
  0.5925212085216262  0.4523669274910306  0.3889329103308886   T   T   T
  0.6390100717867737  0.5014918598021970  0.3652200229738005   T   T   T
  0.5923272381018809  0.5977353591772888  0.3876337227055851   T   T   T
  0.6405370177982357  0.6439294324506257  0.3900378760430622   T   T   T
  0.5935561982213600  0.7389258618926009  0.3964004679553285   T   T   T
  0.6413620696041510  0.7863429689323737  0.3973679112329881   T   T   T
  0.5938908211827054  0.8815488229950253  0.3997049341907929   T   T   T
  0.6415758562624501  0.9290631844544835  0.3998405204135362   T   T   T
  0.5939467088027951  0.0243192098514623  0.4004985453864107   T   T   T
  0.7843337236872345  0.0721588743846228  0.3985094692812176   T   T   T
  0.7365581179212629  0.1674147672715047  0.3966054175391226   T   T   T
  0.7840429691804942  0.2154955888826951  0.3934372487956512   T   T   T
  0.7364738911368610  0.3101777440911876  0.3889463790736453   T   T   T
  0.7843440790687954  0.3583137362245591  0.3863620178875702   T   T   T
  0.7378647294348017  0.4523186300878760  0.3810246511550643   T   T   T
  0.7843039581109523  0.4999225667957130  0.3859007323355310   T   T   T
  0.7363848071541930  0.5959918752928256  0.3878952130334277   T   T   T
  0.7839787920660458  0.6430930421114407  0.3925993420895212   T   T   T
  0.7365113964951104  0.7386615640221627  0.3958652751017063   T   T   T
  0.7843051569532865  0.7861301938287387  0.3980778600481832   T   T   T
  0.7368093304080920  0.8814191826539345  0.3993618557452123   T   T   T
  0.7844520588659476  0.9290734291116143  0.3998537604736584   T   T   T
  0.7368234989818925  0.0243689762375943  0.3995891539634169   T   T   T
  0.9272444220658120  0.0722394297749692  0.3987228738208354   T   T   T
  0.8796868235916029  0.1674155973874341  0.3953901204024486   T   T   T
  0.9272835129102502  0.2150207165446733  0.3950205014103171   T   T   T
  0.8797039606528665  0.3101997438844485  0.3913379297042718   T   T   T
  0.9273229330786708  0.3576481738287503  0.3926024010750566   T   T   T
  0.8796759391893558  0.4527114872650831  0.3910667452884322   T   T   T
  0.9272510930619612  0.5003318522998813  0.3946610531600075   T   T   T
  0.8796427576381415  0.5955367691434137  0.3948702250818539   T   T   T
  0.9272145017746255  0.6431467239166133  0.3983780486276515   T   T   T
  0.8796284912875983  0.7385134662794783  0.3990131156835827   T   T   T
  0.9273192981382400  0.7861374982098149  0.4010816193020019   T   T   T
  0.8796965218208668  0.8814656917339941  0.4006642044238531   T   T   T
  0.9273317288050400  0.9291615824292101  0.4012434342616205   T   T   T
  0.8796480479431764  0.0244666528866665  0.3993544069393044   T   T   T
  0.5140674028175783  0.4905258850323537  0.1580028513814930   T   T   T
  0.4143018074931699  0.6336975895154271  0.2687077681405634   T   T   T
  0.6298772442357295  0.5033715124856484  0.2932596888614427   T   T   T
  0.3602768318964034  0.6356887273574687  0.2527025988132729   T   T   T
  0.5250951476319409  0.5415206777485932  0.2382792399245487   T   T   T
 
  0.00000000E+00  0.00000000E+00  0.00000000E+00
  0.00000000E+00  0.00000000E+00  0.00000000E+00
  0.00000000E+00  0.00000000E+00  0.00000000E+00
  0.00000000E+00  0.00000000E+00  0.00000000E+00
  0.00000000E+00  0.00000000E+00  0.00000000E+00
  0.00000000E+00  0.00000000E+00  0.00000000E+00
  0.00000000E+00  0.00000000E+00  0.00000000E+00
  0.00000000E+00  0.00000000E+00  0.00000000E+00
  0.00000000E+00  0.00000000E+00  0.00000000E+00
  0.00000000E+00  0.00000000E+00  0.00000000E+00
  0.00000000E+00  0.00000000E+00  0.00000000E+00
  0.00000000E+00  0.00000000E+00  0.00000000E+00
  0.00000000E+00  0.00000000E+00  0.00000000E+00
  0.00000000E+00  0.00000000E+00  0.00000000E+00
  0.00000000E+00  0.00000000E+00  0.00000000E+00
  0.00000000E+00  0.00000000E+00  0.00000000E+00
  0.00000000E+00  0.00000000E+00  0.00000000E+00
  0.00000000E+00  0.00000000E+00  0.00000000E+00
  0.00000000E+00  0.00000000E+00  0.00000000E+00
  0.00000000E+00  0.00000000E+00  0.00000000E+00
  0.00000000E+00  0.00000000E+00  0.00000000E+00
  0.00000000E+00  0.00000000E+00  0.00000000E+00
  0.00000000E+00  0.00000000E+00  0.00000000E+00
  0.00000000E+00  0.00000000E+00  0.00000000E+00
  0.00000000E+00  0.00000000E+00  0.00000000E+00
  0.00000000E+00  0.00000000E+00  0.00000000E+00
  0.00000000E+00  0.00000000E+00  0.00000000E+00
  0.00000000E+00  0.00000000E+00  0.00000000E+00
  0.00000000E+00  0.00000000E+00  0.00000000E+00
  0.00000000E+00  0.00000000E+00  0.00000000E+00
  0.00000000E+00  0.00000000E+00  0.00000000E+00
  0.00000000E+00  0.00000000E+00  0.00000000E+00
  0.00000000E+00  0.00000000E+00  0.00000000E+00
  0.00000000E+00  0.00000000E+00  0.00000000E+00
  0.00000000E+00  0.00000000E+00  0.00000000E+00
  0.00000000E+00  0.00000000E+00  0.00000000E+00
  0.00000000E+00  0.00000000E+00  0.00000000E+00
  0.00000000E+00  0.00000000E+00  0.00000000E+00
  0.00000000E+00  0.00000000E+00  0.00000000E+00
  0.00000000E+00  0.00000000E+00  0.00000000E+00
  0.00000000E+00  0.00000000E+00  0.00000000E+00
  0.00000000E+00  0.00000000E+00  0.00000000E+00
  0.00000000E+00  0.00000000E+00  0.00000000E+00
  0.00000000E+00  0.00000000E+00  0.00000000E+00
  0.00000000E+00  0.00000000E+00  0.00000000E+00
  0.00000000E+00  0.00000000E+00  0.00000000E+00
  0.00000000E+00  0.00000000E+00  0.00000000E+00
  0.00000000E+00  0.00000000E+00  0.00000000E+00
  0.00000000E+00  0.00000000E+00  0.00000000E+00
  0.00000000E+00  0.00000000E+00  0.00000000E+00
  0.00000000E+00  0.00000000E+00  0.00000000E+00
  0.00000000E+00  0.00000000E+00  0.00000000E+00
  0.00000000E+00  0.00000000E+00  0.00000000E+00
  0.00000000E+00  0.00000000E+00  0.00000000E+00
  0.00000000E+00  0.00000000E+00  0.00000000E+00
  0.00000000E+00  0.00000000E+00  0.00000000E+00
  0.00000000E+00  0.00000000E+00  0.00000000E+00
  0.00000000E+00  0.00000000E+00  0.00000000E+00
  0.00000000E+00  0.00000000E+00  0.00000000E+00
  0.00000000E+00  0.00000000E+00  0.00000000E+00
  0.00000000E+00  0.00000000E+00  0.00000000E+00
  0.00000000E+00  0.00000000E+00  0.00000000E+00
  0.00000000E+00  0.00000000E+00  0.00000000E+00
  0.00000000E+00  0.00000000E+00  0.00000000E+00
  0.00000000E+00  0.00000000E+00  0.00000000E+00
  0.00000000E+00  0.00000000E+00  0.00000000E+00
  0.00000000E+00  0.00000000E+00  0.00000000E+00
  0.00000000E+00  0.00000000E+00  0.00000000E+00
  0.00000000E+00  0.00000000E+00  0.00000000E+00
  0.00000000E+00  0.00000000E+00  0.00000000E+00
  0.00000000E+00  0.00000000E+00  0.00000000E+00
  0.00000000E+00  0.00000000E+00  0.00000000E+00
  0.00000000E+00  0.00000000E+00  0.00000000E+00
  0.00000000E+00  0.00000000E+00  0.00000000E+00
  0.00000000E+00  0.00000000E+00  0.00000000E+00
  0.00000000E+00  0.00000000E+00  0.00000000E+00
  0.00000000E+00  0.00000000E+00  0.00000000E+00
  0.00000000E+00  0.00000000E+00  0.00000000E+00
  0.00000000E+00  0.00000000E+00  0.00000000E+00
  0.00000000E+00  0.00000000E+00  0.00000000E+00
  0.00000000E+00  0.00000000E+00  0.00000000E+00
  0.00000000E+00  0.00000000E+00  0.00000000E+00
  0.00000000E+00  0.00000000E+00  0.00000000E+00
  0.00000000E+00  0.00000000E+00  0.00000000E+00
  0.00000000E+00  0.00000000E+00  0.00000000E+00
  0.00000000E+00  0.00000000E+00  0.00000000E+00
  0.00000000E+00  0.00000000E+00  0.00000000E+00
  0.00000000E+00  0.00000000E+00  0.00000000E+00
  0.00000000E+00  0.00000000E+00  0.00000000E+00
  0.00000000E+00  0.00000000E+00  0.00000000E+00
  0.00000000E+00  0.00000000E+00  0.00000000E+00
  0.00000000E+00  0.00000000E+00  0.00000000E+00
  0.00000000E+00  0.00000000E+00  0.00000000E+00
  0.00000000E+00  0.00000000E+00  0.00000000E+00
  0.00000000E+00  0.00000000E+00  0.00000000E+00
  0.00000000E+00  0.00000000E+00  0.00000000E+00
  0.00000000E+00  0.00000000E+00  0.00000000E+00
  0.00000000E+00  0.00000000E+00  0.00000000E+00
  0.00000000E+00  0.00000000E+00  0.00000000E+00
  0.00000000E+00  0.00000000E+00  0.00000000E+00
  0.00000000E+00  0.00000000E+00  0.00000000E+00
  0.00000000E+00  0.00000000E+00  0.00000000E+00
  0.00000000E+00  0.00000000E+00  0.00000000E+00
  0.00000000E+00  0.00000000E+00  0.00000000E+00
  0.00000000E+00  0.00000000E+00  0.00000000E+00
  0.00000000E+00  0.00000000E+00  0.00000000E+00
  0.00000000E+00  0.00000000E+00  0.00000000E+00
  0.00000000E+00  0.00000000E+00  0.00000000E+00
  0.00000000E+00  0.00000000E+00  0.00000000E+00
  0.00000000E+00  0.00000000E+00  0.00000000E+00
  0.00000000E+00  0.00000000E+00  0.00000000E+00
  0.00000000E+00  0.00000000E+00  0.00000000E+00
  0.00000000E+00  0.00000000E+00  0.00000000E+00
  0.00000000E+00  0.00000000E+00  0.00000000E+00
  0.00000000E+00  0.00000000E+00  0.00000000E+00
  0.00000000E+00  0.00000000E+00  0.00000000E+00
  0.00000000E+00  0.00000000E+00  0.00000000E+00
  0.00000000E+00  0.00000000E+00  0.00000000E+00
  0.00000000E+00  0.00000000E+00  0.00000000E+00
  0.00000000E+00  0.00000000E+00  0.00000000E+00
  0.00000000E+00  0.00000000E+00  0.00000000E+00
  0.00000000E+00  0.00000000E+00  0.00000000E+00
  0.00000000E+00  0.00000000E+00  0.00000000E+00
  0.00000000E+00  0.00000000E+00  0.00000000E+00
  0.00000000E+00  0.00000000E+00  0.00000000E+00
  0.00000000E+00  0.00000000E+00  0.00000000E+00
  0.00000000E+00  0.00000000E+00  0.00000000E+00
  0.00000000E+00  0.00000000E+00  0.00000000E+00
  0.00000000E+00  0.00000000E+00  0.00000000E+00
  0.00000000E+00  0.00000000E+00  0.00000000E+00
  0.00000000E+00  0.00000000E+00  0.00000000E+00
  0.00000000E+00  0.00000000E+00  0.00000000E+00
  0.00000000E+00  0.00000000E+00  0.00000000E+00
  0.00000000E+00  0.00000000E+00  0.00000000E+00
  0.00000000E+00  0.00000000E+00  0.00000000E+00
  0.00000000E+00  0.00000000E+00  0.00000000E+00
  0.00000000E+00  0.00000000E+00  0.00000000E+00
  0.00000000E+00  0.00000000E+00  0.00000000E+00
  0.00000000E+00  0.00000000E+00  0.00000000E+00
  0.00000000E+00  0.00000000E+00  0.00000000E+00
  0.00000000E+00  0.00000000E+00  0.00000000E+00
  0.00000000E+00  0.00000000E+00  0.00000000E+00
  0.00000000E+00  0.00000000E+00  0.00000000E+00
  0.00000000E+00  0.00000000E+00  0.00000000E+00
  0.00000000E+00  0.00000000E+00  0.00000000E+00
  0.00000000E+00  0.00000000E+00  0.00000000E+00
  0.00000000E+00  0.00000000E+00  0.00000000E+00
  0.00000000E+00  0.00000000E+00  0.00000000E+00
  0.00000000E+00  0.00000000E+00  0.00000000E+00
  0.00000000E+00  0.00000000E+00  0.00000000E+00
  0.00000000E+00  0.00000000E+00  0.00000000E+00
  0.00000000E+00  0.00000000E+00  0.00000000E+00
  0.00000000E+00  0.00000000E+00  0.00000000E+00
  0.00000000E+00  0.00000000E+00  0.00000000E+00
  0.00000000E+00  0.00000000E+00  0.00000000E+00
  0.00000000E+00  0.00000000E+00  0.00000000E+00
  0.00000000E+00  0.00000000E+00  0.00000000E+00
  0.00000000E+00  0.00000000E+00  0.00000000E+00
  0.00000000E+00  0.00000000E+00  0.00000000E+00
  0.00000000E+00  0.00000000E+00  0.00000000E+00
  0.00000000E+00  0.00000000E+00  0.00000000E+00
  0.00000000E+00  0.00000000E+00  0.00000000E+00
  0.00000000E+00  0.00000000E+00  0.00000000E+00
  0.00000000E+00  0.00000000E+00  0.00000000E+00
  0.00000000E+00  0.00000000E+00  0.00000000E+00
  0.00000000E+00  0.00000000E+00  0.00000000E+00
  0.00000000E+00  0.00000000E+00  0.00000000E+00
  0.00000000E+00  0.00000000E+00  0.00000000E+00
  0.00000000E+00  0.00000000E+00  0.00000000E+00
  0.00000000E+00  0.00000000E+00  0.00000000E+00
  0.00000000E+00  0.00000000E+00  0.00000000E+00
  0.00000000E+00  0.00000000E+00  0.00000000E+00
  0.00000000E+00  0.00000000E+00  0.00000000E+00
  0.00000000E+00  0.00000000E+00  0.00000000E+00
  0.00000000E+00  0.00000000E+00  0.00000000E+00
  0.00000000E+00  0.00000000E+00  0.00000000E+00
  0.00000000E+00  0.00000000E+00  0.00000000E+00
  0.00000000E+00  0.00000000E+00  0.00000000E+00
  0.00000000E+00  0.00000000E+00  0.00000000E+00
  0.00000000E+00  0.00000000E+00  0.00000000E+00
  0.00000000E+00  0.00000000E+00  0.00000000E+00
  0.00000000E+00  0.00000000E+00  0.00000000E+00
  0.00000000E+00  0.00000000E+00  0.00000000E+00
  0.00000000E+00  0.00000000E+00  0.00000000E+00
  0.00000000E+00  0.00000000E+00  0.00000000E+00
  0.00000000E+00  0.00000000E+00  0.00000000E+00
  0.00000000E+00  0.00000000E+00  0.00000000E+00
  0.00000000E+00  0.00000000E+00  0.00000000E+00
  0.00000000E+00  0.00000000E+00  0.00000000E+00
  0.00000000E+00  0.00000000E+00  0.00000000E+00
  0.00000000E+00  0.00000000E+00  0.00000000E+00
  0.00000000E+00  0.00000000E+00  0.00000000E+00
  0.00000000E+00  0.00000000E+00  0.00000000E+00
  0.00000000E+00  0.00000000E+00  0.00000000E+00
  0.00000000E+00  0.00000000E+00  0.00000000E+00
  0.00000000E+00  0.00000000E+00  0.00000000E+00
  0.00000000E+00  0.00000000E+00  0.00000000E+00
  0.00000000E+00  0.00000000E+00  0.00000000E+00
  0.00000000E+00  0.00000000E+00  0.00000000E+00
  0.00000000E+00  0.00000000E+00  0.00000000E+00
  0.00000000E+00  0.00000000E+00  0.00000000E+00
