C
    1.000000000000000
    12.2802399999999992     0.0000000000000000     0.0000000000000000
     0.0000000000000000    12.7639999999999993     0.0000000000000000
     0.0000000000000000     0.0000000000000000    20.0000000000000000
C
  114
Selective Dynamics
Direct
  0.0444945037864921  0.0237041852886151  0.9979591747531066    T    F    T
  0.9443034281363611  0.0797602592579523  0.9981284214601367    T    F    T
  0.9443209126805433  0.1909418571800074  0.9982732529412558    T    F    T
  0.0449549367604175  0.2466422959999832  0.9983835961762610    T    F    T
  0.2446448231395583  0.0235921033914863  0.9983088924935031    T    F    T
  0.1445418809991637  0.0792306249992905  0.9983973752885256    T    F    T
  0.1447098175113962  0.1906348050152360  0.9989101663936357    T    F    T
  0.2465490626932748  0.2464057520051668  0.0001508311410982    T    F    T
  0.4442605927833128  0.0234796507744761  0.9988739455976215    T    F    T
  0.3449250905215266  0.0792527610073250  0.9992913072094135    T    F    T
  0.3468869634768975  0.1912784605102971  0.0013816657382528    T    F    T
  0.4441652412567377  0.2450533216417767  0.0039329516707780    T    F    T
  0.6438869112640635  0.0235913954921969  0.9984061571803535    T    F    T
  0.5435808672992626  0.0792535660966820  0.9990884427282378    T    F    T
  0.5415221796837714  0.1912781176343614  0.0011880102143472    T    F    T
  0.6419511031508907  0.2464012710071515  0.0003558733705765    T    F    T
  0.8441253611468823  0.0236995104268729  0.9981245810458638    T    F    T
  0.7440317735045411  0.0792272521856958  0.9986187091436556    T    F    T
  0.7438776327135685  0.1906363525793040  0.9991750434860308    T    F    T
  0.8436560940311785  0.2466408260368311  0.9986968683054780    T    F    T
  0.0450485154725432  0.3576824184182712  0.9982985647172387    T    F    T
  0.9443119990963161  0.4128441363044786  0.9983475582281757    T    F    T
  0.9442914393713147  0.5235511561928305  0.9981589182705344    T    F    T
  0.0447106266980571  0.5787531171329050  0.9978651442854485    T    F    T
  0.2430952733833608  0.3547892741927328  0.9989308278079163    T    F    T
  0.1466896695855051  0.4127021871006846  0.9982238653547383    T    F    T
  0.1440902327751464  0.5247367628073007  0.9978926898917664    T    F    T
  0.2452169948363484  0.5826677000316920  0.9978765886114115    T    F    T
  0.6454317594990105  0.3547855559660675  0.9998386676636745    T    F    T
  0.6433192924657040  0.5826651252475656  0.9986436450888213    T    F    T
  0.8435946660966885  0.3576765227568757  0.9987653223907540    T    F    T
  0.7419124937412178  0.4127037267777141  0.9991243011485779    T    F    T
  0.7444809006251255  0.5247406465849593  0.9987140514652713    T    F    T
  0.8438689178323271  0.5787525414142678  0.9982760275135993    T    F    T
  0.0444594457341709  0.6902476843907053  0.9977473018817491    T    F    T
  0.9442782857416938  0.7454476357770261  0.9977892848850098    T    F    T
  0.9443051269149542  0.8565105443937355  0.9977333632123562    T    F    T
  0.0443842026727179  0.9122149154745784  0.9977770529759634    T    F    T
  0.2448482555943782  0.6907935084674151  0.9978118292836058    T    F    T
  0.1442474851098062  0.7455195165078550  0.9977404756303810    T    F    T
  0.1442893762868020  0.8566996191951972  0.9977733740480509    T    F    T
  0.2443357390422103  0.9126136072800151  0.9979714291912586    T    F    T
  0.4442760022792674  0.6924503452378161  0.9981486986078110    T    F    T
  0.3447502124227992  0.7468076399227570  0.9979712819340049    T    F    T
  0.3445108516635740  0.8567540512881138  0.9980530334588017    T    F    T
  0.4442745590989121  0.9121251238309043  0.9982859571200606    T    F    T
  0.6437130208660333  0.6907904602502413  0.9982225678456370    T    F    T
  0.5437974687588036  0.7468045920044588  0.9981193369523740    T    F    T
  0.5440491503277519  0.8567497407161540  0.9980974333182799    T    F    T
  0.6442202196075026  0.9126105118827255  0.9980881598111940    T    F    T
  0.8441186985271295  0.6902506852671095  0.9980176097164928    T    F    T
  0.7443050416090753  0.7455215987415187  0.9980613633776199    T    F    T
  0.7443097377069263  0.8567027394895135  0.9979384044895213    T    F    T
  0.8442079489199679  0.9122167799534253  0.9978929300078719    T    F    T
  0.9530187309194734  0.7381738967147342  0.1689351881367281    T    F    T
  0.8526134397898285  0.7938802893829475  0.1690832212798430    T    F    T
  0.8522726939646000  0.9049413187449602  0.1690361373812785    T    F    T
  0.9536782459370368  0.9601382449250124  0.1689873329533982    T    F    T
  0.1527257276863220  0.7377762569273187  0.1682528586275001    T    F    T
  0.0528615046098142  0.7936837966190851  0.1686580050829147    T    F    T
  0.0530621874292507  0.9048681578888775  0.1687049296157071    T    F    T
  0.1539271289697855  0.9595609738034909  0.1685104468957995    T    F    T
  0.3526585495083875  0.7382613307607571  0.1679787974424355    T    F    T
  0.2523583782380291  0.7936323570204351  0.1681421552812713    T    F    T
  0.2510940269934743  0.9035631622853799  0.1682861607828729    T    F    T
  0.3480079538465312  0.9579141510864204  0.1683181238067096    T    F    T
  0.5523275324383550  0.7377722082022657  0.1684968437653734    T    F    T
  0.4516403021918888  0.7936413016144783  0.1682797047319821    T    F    T
  0.4489161040651934  0.9035701692690310  0.1683489124668083    T    F    T
  0.5476307101744321  0.9595662963337048  0.1685758132633721    T    F    T
  0.7525878023704266  0.7381762385069948  0.1690601699400134    T    F    T
  0.6520374979155787  0.7936869929755304  0.1688945198779127    T    F    T
  0.6506125715267330  0.9048729477550026  0.1688376806551168    T    F    T
  0.7509648182134081  0.9601357792587777  0.1690077044017100    T    F    T
  0.9590411218611699  0.0716220111486478  0.1690446562436311    T    F    T
  0.8542550978175222  0.1268473680751327  0.1691355541635166    T    F    T
  0.8527180051211579  0.2375597606784225  0.1692489717661779    T    F    T
  0.9545013595635498  0.2927165125576607  0.1691513451641070    T    F    T
  0.1697914235940674  0.0676717474373021  0.1685230046810284    T    F    T
  0.0658764356092008  0.1256427286881845  0.1688697114527471    T    F    T
  0.0581544846817064  0.2376703067682868  0.1686840049482591    T    F    T
  0.1529642439636674  0.2955930431934632  0.1676589914472552    T    F    T
  0.5410719315565858  0.0676760809813572  0.1683370071110413    T    F    T
  0.5465340204651424  0.2955900948497785  0.1676882580854908    T    F    T
  0.7503668112891472  0.0716255301312145  0.1689363271656287    T    F    T
  0.6449825947192066  0.1256347158476885  0.1686459446825469    T    F    T
  0.6477048982756526  0.2376725736437990  0.1685510456672708    T    F    T
  0.7506425888461730  0.2927126784987735  0.1690917378854305    T    F    T
  0.9548887511421855  0.4037374764398720  0.1690420049149371    T    F    T
  0.8539725732257859  0.4594422311343536  0.1692429231695106    T    F    T
  0.8536087823388773  0.5706304314236164  0.1691652427191285    T    F    T
  0.9535831577930568  0.6266873698348405  0.1689611077772526    T    F    T
  0.1558440688350724  0.4039811063358343  0.1676752124797050    T    F    T
  0.0546900601955470  0.4597532238849737  0.1684848218009069    T    F    T
  0.0539258943398907  0.5711655435745797  0.1685253296384453    T    F    T
  0.1539620715750684  0.6268009471156120  0.1680789074066303    T    F    T
  0.3592686454151981  0.4053293992294087  0.1662184973967080    T    F    T
  0.2580260059349181  0.4591077980407903  0.1669666004273365    T    F    T
  0.2553705649353568  0.5711319476603549  0.1674907849920355    T    F    T
  0.3543158293290827  0.6269125690070112  0.1675877419642235    T    F    T
  0.5553960114892122  0.4039730561332604  0.1675169738384601    T    F    T
  0.4554039425657487  0.4591049371817490  0.1668649627430789    T    F    T
  0.4539942719489810  0.5711282845254928  0.1675029401429593    T    F    T
  0.5535381894632143  0.6267921114241659  0.1682485579621190    T    F    T
  0.7538367523164897  0.4037472802609088  0.1690921928330224    T    F    T
  0.6539923732490136  0.4597514369264530  0.1685440172028469    T    F    T
  0.6536968957318099  0.5711608558685697  0.1686779359353049    T    F    T
  0.7532780602459191  0.6266855858640170  0.1690787035514063    T    F    T
  0.3394106459712567  0.5202458215156871  0.9981000823266331    T    T    T
  0.4441683659831002  0.5685935091070713  0.9983632612558371    T    T    T
  0.5490326575795250  0.5204962562630771  0.9987730981402877    T    T    T
  0.4275172353221994  0.1234908794782883  0.1679272771808285    T    T    T
  0.3288451578983377  0.0578985027067130  0.1682495744485773    T    T    T
  0.4415117056367400  0.2380547186882049  0.1667876543747552    T    T    T
